# Cost: 1300

# Tail Head Net
2101 2201 1
2201 2301 1
2301 2401 1
2401 2501 1
2501 2601 1
2601 2701 1
2701 2801 1
2801 2901 1
2901 3001 1
3001 3101 1
3101 3201 1
3201 3301 1
3301 3401 1
3401 3501 1
3501 3601 1
3601 3701 1
3701 3801 1
3801 3901 1
3901 4001 1
4001 4101 1
4101 4201 1
4201 4301 1
4301 4401 1
4401 4501 1
4501 4601 1
4601 4701 1
4701 4801 1
4801 4901 1
4901 4902 1
4901 5001 1
4902 4903 1
4903 4904 1
4904 4905 1
4905 4906 1
4906 4907 1
4907 4908 1
4908 4909 1
4909 4910 1
4910 4911 1
4911 4912 1
4912 4913 1
4913 4914 1
4914 4915 1
4915 4916 1
4916 4917 1
4917 4918 1
4918 4919 1
4919 4920 1
4920 4921 1
4921 4922 1
4922 4923 1
4923 4924 1
4924 4925 1
4925 4926 1
4926 4927 1
4927 4928 1
4928 4929 1
4929 4930 1
4930 4931 1
4931 4932 1
4932 4933 1
4933 4934 1
4934 4935 1
4935 4936 1
4936 4937 1
4937 4938 1
4938 4939 1
4939 4940 1
4940 4941 1
4941 4942 1
4942 4943 1
4943 4944 1
4944 4945 1
4945 4946 1
4946 4947 1
4947 4948 1
4948 4949 1
4949 4950 1
4950 4951 1
4951 4952 1
4952 4953 1
4953 4954 1
4954 4955 1
4955 4956 1
4956 4957 1
4957 4958 1
4958 4959 1
4959 4960 1
4960 4961 1
4961 4962 1
4962 4963 1
4963 4964 1
4964 4965 1
4965 4966 1
4966 4967 1
4967 4968 1
4968 4969 1
4969 4970 1
4970 4971 1
4971 4972 1
4972 4973 1
4973 4974 1
4974 4975 1
4975 4976 1
4976 4977 1
4977 4978 1
4978 4979 1
4979 4980 1
4980 4981 1
4981 4982 1
4982 4983 1
4983 4984 1
4984 4985 1
4985 4986 1
4986 4987 1
4987 4988 1
4988 4989 1
4989 4990 1
4990 4991 1
4991 4992 1
4992 4993 1
4993 4994 1
4994 4995 1
4995 4996 1
4996 4997 1
4997 4998 1
4998 4999 1
4999 5000 1
5001 5101 1
5101 5201 1
5201 5301 1
5301 5401 1
5401 5501 1
 82 182 2
182 282 2
282 382 2
382 482 2
482 582 2
582 682 2
682 782 2
782 882 2
882 982 2
982 1082 2
1082 1182 2
1182 1282 2
1282 1382 2
1382 1482 2
1482 1582 2
1582 1682 2
1682 1782 2
1782 1882 2
1882 1982 2
1902 1901 2
1903 1902 2
1904 1903 2
1905 1904 2
1906 1905 2
1907 1906 2
1908 1907 2
1909 1908 2
1910 1909 2
1911 1910 2
1912 1911 2
1913 1912 2
1914 1913 2
1915 1914 2
1916 1915 2
1917 1916 2
1918 1917 2
1919 1918 2
1920 1919 2
1921 1920 2
1922 1921 2
1923 1922 2
1924 1923 2
1925 1924 2
1926 1925 2
1927 1926 2
1928 1927 2
1929 1928 2
1930 1929 2
1931 1930 2
1932 1931 2
1933 1932 2
1934 1933 2
1935 1934 2
1936 1935 2
1937 1936 2
1938 1937 2
1939 1938 2
1940 1939 2
1941 1940 2
1942 1941 2
1943 1942 2
1944 1943 2
1945 1944 2
1946 1945 2
1947 1946 2
1948 1947 2
1949 1948 2
1950 1949 2
1951 1950 2
1952 1951 2
1953 1952 2
1954 1953 2
1955 1954 2
1956 1955 2
1957 1956 2
1958 1957 2
1959 1958 2
1960 1959 2
1961 1960 2
1962 1961 2
1963 1962 2
1964 1963 2
1965 1964 2
1966 1965 2
1967 1966 2
1968 1967 2
1969 1968 2
1970 1969 2
1971 1970 2
1972 1971 2
1973 1972 2
1974 1973 2
1975 1974 2
1976 1975 2
1977 1976 2
1978 1977 2
1979 1978 2
1980 1979 2
1981 1980 2
1982 1981 2
1982 2082 2
2082 2182 2
2182 2282 2
2282 2382 2
2382 2482 2
2482 2582 2
2582 2682 2
2682 2683 2
2683 2684 2
2684 2685 2
2685 2686 2
2686 2687 2
2687 2688 2
2688 2689 2
2689 2690 2
2690 2691 2
2691 2692 2
2692 2693 2
2693 2694 2
2694 2695 2
2695 2696 2
2696 2697 2
2697 2698 2
2698 2699 2
2699 2700 2
10072  72 3
10073 10072 3
10074 10073 3
10075 10074 3
10076 10075 3
10077 10076 3
10078 10077 3
10079 10078 3
10080 10079 3
10081 10080 3
10082 10081 3
 84 10084 3
10083 10082 3
 85  84 3
10084 10083 3
 86  85 3
 87  86 3
 88  87 3
188  88 3
288 188 3
289 288 3
290 289 3
291 290 3
292 291 3
293 292 3
294 293 3
295 294 3
296 295 3
297 296 3
397 297 3
398 397 3
498 398 3
598 498 3
599 598 3
699 599 3
700 699 3
800 700 3
900 800 3
1000 900 3
1100 1000 3
1200 1100 3
1300 1200 3
1400 1300 3
1500 1400 3
1600 1500 3
1700 1600 3
1800 1700 3
1900 1800 3
2000 1900 3
2100 2000 3
2200 2100 3
7500 7600 4
7600 7700 4
7700 7800 4
7800 7900 4
7900 8000 4
8000 8100 4
8100 8200 4
8200 8300 4
8300 8400 4
8400 8500 4
8500 8600 4
8600 8700 4
8700 8800 4
8800 8900 4
8900 9000 4
9000 9100 4
9100 9200 4
9200 9300 4
9300 9400 4
9400 9500 4
9500 9600 4
9600 9700 4
9700 9800 4
9800 9900 4
9821 9921 4
9822 9821 4
9823 9822 4
9824 9823 4
9825 9824 4
9826 9825 4
9827 9826 4
9828 9827 4
9829 9828 4
9830 9829 4
9831 9830 4
9832 9831 4
9833 9832 4
9834 9833 4
9835 9834 4
9836 9835 4
9837 9836 4
9838 9837 4
9839 9838 4
9840 9839 4
9841 9840 4
9842 9841 4
9843 9842 4
9844 9843 4
9845 9844 4
9846 9845 4
9847 9846 4
9848 9847 4
9849 9848 4
9850 9849 4
9851 9850 4
9852 9851 4
9853 9852 4
9854 9853 4
9855 9854 4
9856 9855 4
9857 9856 4
9858 9857 4
9859 9858 4
9860 9859 4
9861 9860 4
9862 9861 4
9863 9862 4
9864 9863 4
9865 9864 4
9866 9865 4
9867 9866 4
9868 9867 4
9869 9868 4
9870 9869 4
9871 9870 4
9872 9871 4
9873 9872 4
9874 9873 4
9875 9874 4
9876 9875 4
9877 9876 4
9878 9877 4
9879 9878 4
9880 9879 4
9881 9880 4
9882 9881 4
9883 9882 4
9884 9883 4
9885 9884 4
9886 9885 4
9887 9886 4
9888 9887 4
9889 9888 4
9890 9889 4
9891 9890 4
9892 9891 4
9893 9892 4
9894 9893 4
9895 9894 4
9896 9895 4
9897 9896 4
9898 9897 4
9899 9898 4
9900 9899 4
9923 19923 5
9924 9923 5
9925 9924 5
9926 9925 5
9927 9926 5
9928 9927 5
9929 9928 5
9930 9929 5
9931 9930 5
9932 9931 5
9933 9932 5
9934 9933 5
9935 9934 5
9936 9935 5
9937 9936 5
9938 9937 5
9939 9938 5
9940 9939 5
9941 9940 5
9942 9941 5
9943 9942 5
9944 9943 5
9945 9944 5
9946 9945 5
9947 9946 5
9948 9947 5
9949 9948 5
9950 9949 5
9951 9950 5
9952 9951 5
9953 9952 5
9954 9953 5
9955 9954 5
9956 9955 5
9957 9956 5
9958 9957 5
9959 9958 5
9960 9959 5
9961 9960 5
9962 9961 5
9963 9962 5
9964 9963 5
9965 9964 5
9966 9965 5
9967 9966 5
9968 9967 5
9969 9968 5
9970 9969 5
9971 9970 5
9972 9971 5
9973 9972 5
9974 9973 5
9975 9974 5
9976 9975 5
9977 9976 5
9978 9977 5
9979 9978 5
9980 9979 5
9981 9980 5
9982 9981 5
9983 9982 5
9984 9983 5
9985 9984 5
9986 9985 5
9987 9986 5
9988 9987 5
9989 9988 5
9990 9989 5
9991 9990 5
19902 9902 5
19903 19902 5
19904 19903 5
19905 19904 5
19906 19905 5
19907 19906 5
19908 19907 5
19909 19908 5
19910 19909 5
19911 19910 5
19912 19911 5
19913 19912 5
19914 19913 5
19915 19914 5
19916 19915 5
19917 19916 5
19918 19917 5
19919 19918 5
19920 19919 5
19921 19920 5
19922 19921 5
19923 19922 5
10014  14 6
10114 10014 6
10214 10114 6
10314 10214 6
10414 10314 6
10514 10414 6
10614 10514 6
10714 10614 6
10814 10714 6
10914 10814 6
11014 10914 6
11114 11014 6
11214 11114 6
11314 11214 6
11414 11314 6
11514 11414 6
11614 11514 6
11714 11614 6
11814 11714 6
11914 11814 6
12014 11914 6
12114 12014 6
12214 12114 6
12314 12214 6
12414 12314 6
12514 12414 6
12614 12514 6
12714 12614 6
12814 12714 6
12914 12814 6
13014 12914 6
13114 13014 6
13214 13114 6
13314 13214 6
13414 13314 6
13514 13414 6
13614 13514 6
13714 13614 6
13814 13714 6
13914 13814 6
14014 13914 6
14114 14014 6
14214 14114 6
14314 14214 6
14414 14314 6
14514 14414 6
14614 14514 6
14714 14614 6
14814 14714 6
14914 14814 6
15014 14914 6
15114 15014 6
15214 15114 6
15314 15214 6
15414 15314 6
15514 15414 6
15614 15514 6
15714 15614 6
15814 15714 6
15914 15814 6
16014 15914 6
16114 16014 6
16214 16114 6
16314 16214 6
16414 16314 6
16514 16414 6
16614 16514 6
16714 16614 6
6914 16914 6
16814 16714 6
6915 6914 6
6916 6915 6
6917 6916 6
6918 6917 6
6919 6918 6
6920 6919 6
6921 6920 6
6922 6921 6
6923 6922 6
6924 6923 6
6925 6924 6
6926 6925 6
6927 6926 6
6928 6927 6
6929 6928 6
6930 6929 6
6931 6930 6
6932 6931 6
6933 6932 6
6934 6933 6
6935 6934 6
6936 6935 6
6937 6936 6
6938 6937 6
6939 6938 6
6940 6939 6
6941 6940 6
6942 6941 6
6943 6942 6
6944 6943 6
6945 6944 6
6946 6945 6
6947 6946 6
6948 6947 6
6949 6948 6
6950 6949 6
6951 6950 6
6952 6951 6
6953 6952 6
6954 6953 6
6955 6954 6
6956 6955 6
6957 6956 6
6958 6957 6
6959 6958 6
6960 6959 6
6961 6960 6
6962 6961 6
6963 6962 6
6964 6963 6
6965 6964 6
6966 6965 6
6967 6966 6
6968 6967 6
6969 6968 6
6970 6969 6
6971 6970 6
6972 6971 6
6973 6972 6
6974 6973 6
6975 6974 6
6976 6975 6
6977 6976 6
6978 6977 6
6979 6978 6
6980 6979 6
6981 6980 6
6982 6981 6
6983 6982 6
6984 6983 6
6985 6984 6
6986 6985 6
6987 6986 6
6988 6987 6
6989 6988 6
6990 6989 6
6991 6990 6
6992 6991 6
6993 6992 6
6994 6993 6
6995 6994 6
6996 6995 6
6997 6996 6
6998 6997 6
6999 6998 6
7000 6999 6
7000 7100 6
16914 16814 6
7100 7200 6
7200 7300 6
7300 7400 6
175 275 7
176 175 7
177 176 7
 79 179 7
178 177 7
179 178 7
201 301 7
202 201 7
203 202 7
204 203 7
205 204 7
206 205 7
207 206 7
208 207 7
209 208 7
210 209 7
211 210 7
212 211 7
213 212 7
214 213 7
215 214 7
216 215 7
217 216 7
218 217 7
219 218 7
220 219 7
221 220 7
222 221 7
223 222 7
224 223 7
225 224 7
226 225 7
227 226 7
228 227 7
229 228 7
230 229 7
231 230 7
232 231 7
233 232 7
234 233 7
235 234 7
236 235 7
237 236 7
238 237 7
239 238 7
240 239 7
241 240 7
242 241 7
243 242 7
244 243 7
245 244 7
246 245 7
247 246 7
248 247 7
249 248 7
250 249 7
251 250 7
252 251 7
253 252 7
254 253 7
255 254 7
256 255 7
257 256 7
258 257 7
259 258 7
260 259 7
261 260 7
262 261 7
263 262 7
264 263 7
265 264 7
266 265 7
267 266 7
268 267 7
269 268 7
270 269 7
271 270 7
272 271 7
273 272 7
274 273 7
275 274 7
301 401 7
401 501 7
501 601 7
601 701 7
701 801 7
801 901 7
901 1001 7
1001 1101 7
1101 1201 7
1201 1301 7
1301 1401 7
1401 1501 7
1501 1601 7
1601 1701 7
1701 1801 7
10029  29 8
10129 10029 8
10229 10129 8
10329 10229 8
10429 10329 8
10529 10429 8
10629 10529 8
10729 10629 8
10829 10729 8
10929 10829 8
11029 10929 8
11129 11029 8
11229 11129 8
11329 11229 8
11429 11329 8
11529 11429 8
11629 11529 8
11729 11629 8
11829 11729 8
11929 11829 8
12029 11929 8
12129 12029 8
12229 12129 8
12329 12229 8
12429 12329 8
12529 12429 8
12629 12529 8
12729 12629 8
12829 12729 8
12929 12829 8
13029 12929 8
13129 13029 8
13229 13129 8
13329 13229 8
13429 13329 8
13529 13429 8
13629 13529 8
13729 13629 8
13829 13729 8
13929 13829 8
14029 13929 8
14129 14029 8
14229 14129 8
14329 14229 8
14429 14329 8
14529 14429 8
14629 14529 8
14729 14629 8
14829 14729 8
14929 14829 8
15029 14929 8
15129 15029 8
15229 15129 8
15329 15229 8
15429 15329 8
15529 15429 8
15629 15529 8
15729 15629 8
15829 15729 8
15929 15829 8
16029 15929 8
16129 16029 8
16229 16129 8
16329 16229 8
16429 16329 8
16529 16429 8
16629 16529 8
16729 16629 8
16829 16729 8
16929 16829 8
17029 16929 8
17129 17029 8
17229 17129 8
7401 7402 8
7402 7403 8
7403 7404 8
7404 7405 8
7405 7406 8
7406 7407 8
7407 7408 8
7408 7409 8
7409 7410 8
7410 7411 8
7411 7412 8
7412 7413 8
7413 7414 8
7414 7415 8
7415 7416 8
7416 7417 8
7417 7418 8
7418 7419 8
7419 7420 8
7420 7421 8
7421 7422 8
7422 7423 8
7423 7424 8
7424 7425 8
7425 7426 8
7426 7427 8
7427 7428 8
7428 17428 8
17329 17229 8
17428 17429 8
17429 17329 8
 98 10098 9
10098 10198 9
10198 10298 9
10298 10398 9
10398 10498 9
10498 10598 9
10598 10698 9
10698 10798 9
10798 10898 9
10898 10998 9
10998 11098 9
11098 11198 9
11198 11298 9
11298 11398 9
11398 11498 9
11498 11598 9
11598 11698 9
11698 11798 9
11798 11898 9
11898 11998 9
11998 12098 9
12098 12198 9
12198 12298 9
12298 12398 9
12398 12498 9
12498 12598 9
12598 12698 9
12698 12798 9
12798 12898 9
12898 12998 9
12998 13098 9
13098 13198 9
13198 13298 9
13298 13398 9
13398 13498 9
13498 13598 9
13598 13698 9
13698 13798 9
13798 13898 9
13898 13998 9
13998 14098 9
14098 14198 9
14198 14298 9
14298 14398 9
14398 14498 9
14498 14598 9
14598 14698 9
14698 14798 9
14798 14898 9
14898 14998 9
14998 15098 9
15098 15198 9
15198 15298 9
15298 15398 9
15398 15498 9
15498 15598 9
15598 15698 9
15698 15798 9
15798 15898 9
15898 15998 9
15998 16098 9
16098 16198 9
16198 16298 9
16298 16398 9
16398 16498 9
16498 16598 9
16598 16698 9
16698 16798 9
16798 16898 9
16898 16998 9
16998 17098 9
17098 17198 9
17198 17298 9
17298 17398 9
17398 17498 9
17498 17598 9
17598 17698 9
17698 17798 9
17798 17898 9
17898 17998 9
17998 18098 9
18098 18198 9
18198 18298 9
18298 18398 9
18398 18498 9
18498 18598 9
18597 18697 9
18598 18597 9
18697 18797 9
18797 18897 9
18896 18996 9
18897 18896 9
18996 19096 9
19096 19196 9
19196 19296 9
19295 19395 9
19296 19295 9
19395 19495 9
19495 19595 9
19595 19695 9
19685 19785 9
19686 19685 9
19687 19686 9
19688 19687 9
19689 19688 9
19690 19689 9
19691 19690 9
19692 19691 9
19693 19692 9
19694 19693 9
19695 19694 9
9819 9919 9
19782 19882 9
19783 19782 9
19784 19783 9
19785 19784 9
9918 9917 9
9919 9918 9
19819 9819 9
19820 19819 9
19821 19820 9
19822 19821 9
19823 19822 9
19824 19823 9
19825 19824 9
19826 19825 9
19827 19826 9
19828 19827 9
19829 19828 9
19830 19829 9
19831 19830 9
19832 19831 9
19833 19832 9
19834 19833 9
19835 19834 9
19836 19835 9
19837 19836 9
19838 19837 9
19839 19838 9
19840 19839 9
19841 19840 9
19842 19841 9
19843 19842 9
19844 19843 9
19845 19844 9
19846 19845 9
19847 19846 9
19848 19847 9
19849 19848 9
19850 19849 9
19851 19850 9
19852 19851 9
19853 19852 9
19854 19853 9
19855 19854 9
19856 19855 9
19857 19856 9
19858 19857 9
19859 19858 9
19860 19859 9
19861 19860 9
19862 19861 9
19863 19862 9
19864 19863 9
19865 19864 9
19866 19865 9
19867 19866 9
19868 19867 9
19869 19868 9
19870 19869 9
19871 19870 9
19872 19871 9
19873 19872 9
19874 19873 9
19875 19874 9
19876 19875 9
19877 19876 9
19878 19877 9
19879 19878 9
19880 19879 9
19881 19880 9
19882 19881 9
 35 10035 10
10035 10135 10
10135 10235 10
10235 10335 10
10335 10435 10
10435 10535 10
10535 10635 10
10635 10735 10
10735 10835 10
10835 10935 10
10935 11035 10
11035 11135 10
11135 11235 10
11235 11335 10
11335 11435 10
11435 11535 10
11535 11635 10
11635 11735 10
11735 11835 10
11835 11935 10
11935 12035 10
12035 12135 10
12135 12235 10
12235 12335 10
12335 12435 10
12435 12535 10
12535 12635 10
12635 12735 10
12735 12835 10
12835 12935 10
12935 13035 10
13035 13135 10
13135 13235 10
13235 13335 10
13335 13435 10
13435 13535 10
13535 13635 10
13635 13735 10
13735 13835 10
13835 13935 10
13935 14035 10
14035 14135 10
14135 14235 10
14235 14335 10
14335 14435 10
14435 14535 10
14535 14635 10
14635 14735 10
14735 14835 10
14835 14935 10
14935 15035 10
5135 5235 10
15035 15135 10
5235 5236 10
15135 5135 10
5236 5237 10
5237 5337 10
5337 5437 10
5437 5438 10
5438 5538 10
5538 5539 10
5539 5540 10
5540 5541 10
5541 5542 10
5542 5543 10
5543 5544 10
5544 5545 10
5545 5546 10
5546 5547 10
5547 5548 10
5548 5549 10
5549 5550 10
5550 5551 10
5551 5552 10
5552 5553 10
5553 5554 10
5554 5555 10
5555 5556 10
5556 5557 10
5557 5558 10
5558 5559 10
5559 5560 10
5560 5561 10
5561 5562 10
5562 5563 10
5563 5564 10
5564 5565 10
5565 5566 10
5566 5567 10
5567 5568 10
5568 5569 10
5569 5570 10
5570 5571 10
5571 5572 10
5572 5573 10
5573 5574 10
5574 5575 10
5575 5576 10
5576 5577 10
5577 5578 10
5578 5579 10
5579 5580 10
5580 5581 10
5581 5582 10
5582 5583 10
5583 5584 10
5584 5585 10
5585 5586 10
5586 5587 10
5587 5588 10
5588 5589 10
5589 5689 10
5689 5690 10
5690 5691 10
5691 5791 10
5791 5792 10
5792 5793 10
5793 5794 10
5794 5894 10
5894 5895 10
5895 5995 10
5995 6095 10
6095 6195 10
6195 6196 10
6196 6197 10
6197 6297 10
6297 6298 10
6298 6398 10
6398 6399 10
6399 6499 10
6499 6500 10
 74 174 11
 75  74 11
174 10174 11
 76  75 11
10086 10087 11
10087 10088 11
10088 10089 11
 90  91 11
10089 10090 11
 91  92 11
10090  90 11
 92  93 11
 93  94 11
 94  95 11
10174 10175 11
10175 10176 11
10176 10177 11
10177 10178 11
10178 10179 11
10179 10180 11
10180 10181 11
10181 10182 11
10182 10183 11
10183 10184 11
10184 10185 11
10185 10186 11
10186 10086 11
 70 10070 12
10070 10170 12
10170 10270 12
10270 10271 12
10271 10371 12
10371 10471 12
10471 10571 12
10571 10671 12
10671 10672 12
10672 10772 12
10772 10773 12
10773 10873 12
10873 10973 12
10973 10974 12
10974 11074 12
11074 11174 12
11174 11274 12
11274 11275 12
11275 11276 12
11276 11277 12
11277 11377 12
11377 11378 12
11378 11379 12
11379 11479 12
11479 11579 12
11579 11580 12
11580 11680 12
11680 11681 12
11681 11781 12
11781 11881 12
11881 11981 12
11981 12081 12
12081 12082 12
12082 12182 12
12182 12282 12
12282 12382 12
12382 12482 12
12482 12483 12
12483 12583 12
12583 12683 12
12683 12783 12
12783 12784 12
12784 12785 12
12785 12885 12
2985 3085 12
12885 12985 12
3085 3086 12
12985 2985 12
3086 3186 12
3186 3187 12
3187 3287 12
3287 3288 12
3288 3289 12
3289 3290 12
3290 3291 12
3291 3292 12
3292 3392 12
3392 3393 12
3393 3394 12
3394 3494 12
3494 3495 12
3495 3496 12
3496 3596 12
3596 3597 12
3597 3598 12
3598 3698 12
3698 3699 12
3699 3700 12
3700 3800 12
3800 3900 12
 24  25 13
 25  26 13
 26 126 13
126 127 13
127 128 13
128 129 13
 30  31 13
129 130 13
 31  32 13
130  30 13
 32  33 13
6501 6601 14
6601 6701 14
6701 6801 14
6801 6901 14
6901 7001 14
7001 7101 14
7101 17101 14
17101 17201 14
17201 17301 14
17301 17401 14
17401 17501 14
17501 17601 14
17601 17701 14
17701 7701 14
